260 261 259 258 262 263 264 265 266 267 271 272 269 268 270 296 295 294 293 291 292 273 274 275 276 277 290 289 288 278 279 282 281 280 287 286 285 284 283 334 335 336 337 338 339 333 332 331 330 340 341 344 343 342 366 329 328 327 326 325 324 323 322 373 374 316 314 315 375 376 377 378 379 380 381 390 389 388 391 392 393 394 395 396 371 372 370 369 368 367 365 364 345 346 362 363 361 347 348 349 350 351 352 357 358 359 360 401 402 403 400 399 398 397 407 406 404 405 408 387 386 385 409 384 383 410 411 412 356 355 354 353 415 416 414 413 417 418 419 420 421 422 423 424 425 382 426 427 428 429 431 430 432 433 434 435 436 437 438 443 444 445 447 448 449 446 442 439 454 455 456 457 458 459 460 461 462 463 464 465 466 467 468 469 470 496 497 498 502 503 504 505 308 309 310 501 500 499 452 453 440 441 450 451 311 312 313 307 303 304 306 305 318 317 319 320 321 297 298 299 300 301 302 508 507 506 509 510 511 513 512 527 526 523 522 514 515 516 517 521 520 519 518 495 471 474 473 472 494 524 525 493 492 491 490 528 529 530 531 489 488 533 532 231 230 229 228 227 189 225 226 190 191 192 193 194 195 196 197 184 183 185 186 188 187 540 538 539 537 536 535 534 487 486 485 484 483 482 481 480 479 478 477 476 475 567 568 569 570 571 572 573 0 1 2 3 4 5 6 7 8 9 10 11 16 17 18 19 20 15 14 13 12 23 22 21 24 25 26 27 28 29 31 30 32 33 34 35 36 37 38 40 41 39 42 43 44 45 46 47 48 49 54 53 52 50 51 84 85 86 87 90 92 91 555 556 557 558 559 560 561 562 563 565 566 564 549 548 550 551 101 552 553 554 99 100 102 98 97 96 95 94 93 89 88 78 62 79 80 81 82 83 55 56 57 58 59 60 61 63 64 76 77 75 74 73 119 118 120 121 122 123 71 72 65 66 67 68 70 69 124 125 126 127 128 129 130 137 138 139 140 136 135 134 133 132 131 113 112 114 115 116 117 106 105 104 103 547 546 545 544 543 541 542 107 110 111 109 108 173 174 172 170 169 171 175 176 177 178 182 179 181 180 166 167 163 168 162 161 160 155 156 159 157 158 145 146 144 143 142 141 151 150 149 152 148 147 153 154 164 165 201 200 199 198 202 204 203 208 207 206 205 209 210 211 212 213 214 215 216 217 223 221 220 218 219 222 224 232 233 234 235 236 237 240 239 238 246 247 245 244 243 242 241 248 249 250 251 252 254 253 255 256 257